instances/shortest_path/discrete/shortest_path_7_8.kp
67885
151

[3.5357614043649956 0.047139933613225 4.081282789944038 2.930886082239869 2.127426120913523 0.38861144715338 3.9694614504449337 4.392763068850451 3.420976593675116 1.5781625409659445 3.0047341037471313 4.423568447370933 4.3692123766993385 4.133704396868091 1.110800773081362 4.152858172422167 3.7869003777019214 0.4876799289035991 1.8211290003113412 0.5124981564989695 1.05773896117396 3.064844438766011 2.985211911982591 3.043927550564831 3.5844573203502845 2.3260646648957795 3.2159380800616284 0.3353211102543063 3.7198859038860466 2.987169270781058 0.8402199043369379 3.4326173729704714 0.35544479255907985 0.6041266383879802]

[35 88 74 35 80 9 97 51 13 30 79 75 92 28 72 100 69 28 45 86 17 51 28 10 8 20 66 15 13 15 65 59 31 77]
